# PBE/6-31G energy of H2O with explicit DFT-D4 rational damping.
[input]
system=
 8   0.000000000   0.000000000  -0.041061554
 1  -0.533194329   0.533194329  -0.614469223
 1   0.533194329  -0.533194329  -0.614469223

charge=0
method=hf
basis=6-31g
runtype=energy
functional=pbe
d4=true

[d4]
s6=1.0
s8=0.95948085
s9=1.0
a1=0.38574991
a2=4.80688534
alp=16.0

[guess]
type=huckel
save_mol=true

[scf]
type=rhf
multiplicity=1
maxit=30
maxdiis=7
diis_type=cdiis
conv=1.0e-6

[dftgrid]
rad_npts=96
ang_npts=302
pruned=
