# DTCAM-TB (MRSF-TDDFTB) vertical energies of s-trans butadiene.
# model=dtcam resolves the complete published operator and the fast
# numerical protocol inside openqp-dftb; the bundled OB2W0PT3 set (official
# spinw.txt included) is resolved automatically when parameter_path is empty --
# set parameter_path or OPENQP_DFTB_PARAMETER_PATH only to override it.
# Physical S0 is singlet response root 1; S1/S2 are roots 2/3.
[input]
system=
   6   0.605000   0.398000   0.000000
   6  -0.605000  -0.398000   0.000000
   6   1.832000  -0.116000   0.000000
   6  -1.832000   0.116000   0.000000
   1   0.472000   1.479000   0.000000
   1  -0.472000  -1.479000   0.000000
   1   2.725000   0.506000   0.000000
   1  -2.725000  -0.506000   0.000000
   1   1.992000  -1.193000   0.000000
   1  -1.992000   1.193000   0.000000
charge=0
runtype=energy
method=dftb
[scf]
type=rohf
multiplicity=3

[dftb]
model=dtcam
type=mrsf
parameter_path=
[tdhf]
type=mrsf
nstate=3
