routec_grad_inp v1
natm 3
nbf 25
naux 133
nsub 12
0 0 9
11720 0.5699861450392486
1759 1.058880543467684
400.79998779296875 1.7771679090646177
113.69999694824219 2.6007096651609478
37.029998779296875 3.0283572517345747
13.270000457763672 2.2235039409908772
5.0250000953674316 0.6481188322696303
1.0130000114440918 0.01112424726542917
0.30230000615119934 -0.00075110281981560041
0 0 9
11720 -0.12844755203427996
1759 -0.24449099385947842
400.79998779296875 -0.40009729954740592
113.69999694824219 -0.63816634423625862
37.029998779296875 -0.75878482956234417
13.270000457763672 -0.81964865419816002
5.0250000953674316 -0.27975701793538532
1.0130000114440918 0.40110608911669193
0.30230000615119934 0.16642197430329622
0 0 1
0.30230000615119934 0.2905619284431159
1 0 4
17.700000762939453 2.2261622290895535
3.8540000915527344 1.761976460278466
1.0460000038146973 0.76707932530909551
0.27529999613761902 0.13090511835416063
1 0 1
0.27529999613761902 0.28424827940164937
2 0 1
1.184999942779541 3.5118540806188627
0 1 4
13.010000228881836 0.096106610124988973
1.9620000123977661 0.16301997524263753
0.44459998607635498 0.18554501769383075
0.12200000137090683 0.073743792505806094
0 1 1
0.12200000137090683 0.14712279566848122
1 1 1
0.72699999809265137 0.95688137192148726
0 2 4
13.010000228881836 0.096106610124988973
1.9620000123977661 0.16301997524263753
0.44459998607635498 0.18554501769383075
0.12200000137090683 0.073743792505806094
0 2 1
0.12200000137090683 0.14712279566848122
1 2 1
0.72699999809265137 0.95688137192148726
nauxsub 37
0 0 5
625.28298110000003 9.1439490457198254
253.9327418 4.8393660355798103
109.0492955 7.9285020759555227
49.423005600000003 4.4695587288770069
23.580521099999999 1.9369640957726666
0 0 1
11.8077591 4.5397893881566969
0 0 1
6.1827813999999996 2.79446073060552
0 0 1
3.3709061 1.7730463280526139
0 0 1
1.9042805 1.1553359370161027
0 0 1
1.1085446999999999 0.76997211933269838
0 0 1
0.66098860000000004 0.52246303535724847
0 0 1
0.40108139999999998 0.35919847475713762
0 0 1
0.2459769 0.24893206118572478
0 0 1
0.1513939 0.17297820051194149
1 0 3
77.687483799999995 89.975306749434765
22.415388400000001 40.869608859318923
9.8906463000000002 6.6949563992748713
1 0 1
5.4848863000000003 11.964639685982215
1 0 1
2.9732983000000002 5.5652950142811077
1 0 1
1.4735259999999999 2.3141278125754541
1 0 1
0.73603410000000002 0.9717678061084789
1 0 1
0.3697414 0.41097243116926335
1 0 1
0.18637210000000001 0.17454853631144698
1 0 1
0.094990599999999994 0.075169364126773455
2 0 3
37.707107399999998 95.658190772947805
14.7752543 74.758898620505207
5.8470899999999997 44.5527234969571
2 0 1
2.3304364999999998 11.469503415361299
2 0 1
0.93282670000000001 2.3103675734198843
2 0 1
0.3739285 0.46656201607423797
3 0 1
3.0293421999999999 23.88053845567828
3 0 1
0.92484900000000003 1.6545112790169019
4 0 1
1.6934809 5.5984130222538138
0 1 3
22.068342999999999 0.30795901629809846
4.3905712000000001 0.68267918100356773
1.0540787 0.54422307252245139
0 1 1
0.27178740000000001 0.26827616008670746
1 1 1
1.8529979000000001 3.0816530855709674
1 1 1
0.38810339999999999 0.436640883582882
2 1 1
2.5579933000000001 13.500608411472667
2 1 1
0.32926490000000003 0.37345123555619902
0 2 3
22.068342999999999 0.30795901629809846
4.3905712000000001 0.68267918100356773
1.0540787 0.54422307252245139
0 2 1
0.27178740000000001 0.26827616008670746
1 2 1
1.8529979000000001 3.0816530855709674
1 2 1
0.38810339999999999 0.436640883582882
2 2 1
2.5579933000000001 13.500608411472667
2 2 1
0.32926490000000003 0.37345123555619902
map
0 0.99999964595957458
1 0.99999986372879168
2 1.0000000000000002
3 1.0000001906852467
4 1.0000001906852467
5 1.0000001906852469
6 1.0000000000000004
7 1.0000000000000004
8 1.0000000000000004
9 0.63078313050503998
12 0.63078313050503998
14 0.63078313050503998
10 1.0925484305920794
11 1.0925484305920794
13 1.0925484305920794
15 1.000000539791948
16 1
17 1.0000000000000002
18 1.0000000000000002
19 1.0000000000000002
20 1.000000539791948
21 1
22 1.0000000000000002
23 1.0000000000000002
24 1.0000000000000002
