# MRSF-TDDFTB of triplet-reference CH2 with the dtcam-gap operator preset.
#
# DOCUMENTATION EXAMPLE, not a self-contained regression test.  It needs the
# optional external openqp-dftb library (libopenqp_dftb_c) with the dtcam-gap
# preset (Open-Quantum-Platform/openqp-dftb#37) and a DFTB parameter set.
# Neither ships with OpenQP or its CI, so `openqp --run_tests all` skips every
# method=dftb input.  With openqp-dftb installed, run it explicitly:
#
#     openqp examples/DFTB/CH2_MRSF-TDDFTB_DTCAM-GAP_ENERGY.inp
#
# With no [dftb] parameter_path, the bundled openqp-dftb parameter set is used
# when the installed openqp-dftb provides one; otherwise set parameter_path
# (an .opdftb file or an SKF directory) or export OPENQP_DFTB_PARAMETER_PATH.
#
# model=dtcam-gap is the DTCAM-TB operator refitted on singlet-triplet gaps
# rather than vertical excitation energies.  It differs from model=dtcam only in
# the response operator (response omega, response cam_beta, the p-p one-centre
# term and the three spin-pair couplings); the reference SCC is identical.
# Prefer it where state ordering and crossing geometry decide the outcome, such
# as nonadiabatic dynamics; model=dtcam remains the better choice for
# individual vertical excitation energies.
[input]
system=
   6   0.000000000   0.000000000   0.000000000
   1   0.000000000   0.990000000   0.330000000
   1   0.000000000  -0.990000000   0.330000000
charge=0
method=dftb
runtype=energy

[scf]
type=rohf
multiplicity=3

[dftb]
type=mrsf
model=dtcam-gap

[tdhf]
type=mrsf
nstate=3
