[input]
system=
   Li  0.000000000   0.000000000   0.000000000
   H   0.000000000   0.000000000   1.600000000
charge=0
runtype=energy
basis=sto-3g
method=sa-casscf
[guess]
type=hcore
[scf]
multiplicity=1
type=rhf
maxit=80
forced_attempt=3
save_molden=false
[properties]
scf_prop=
[cas]
active_electrons=2
active_orbitals=2
frozen_core=1
orbital_source=rhf
max_det=5000
max_memory=512
[ci]
nroot=2
solver=dense
eig_tol=1.0e-10
integral_backend=native
target_spin=singlet
root_tracking=energy
[casscf]
max_macro_iterations=50
optimizer=newton
max_rotation_norm=2.0e-1
gradient_norm_tol=1.0e-7
level_shift=1.0e-3
canonicalize=true
[state_average]
enabled=true
weights=0.5,0.5
nstate=2
target_roots=0,1
equal_weights=true
